c smth
s vc 200 135
200
199
198
197
191
190
187
186
185
184
182
181
179
176
173
171
170
169
167
166
165
164
163
162
160
158
157
156
155
154
153
152
151
150
149
146
145
142
141
139
138
136
135
134
133
131
130
127
126
125
123
122
120
118
117
116
115
114
111
110
108
107
106
105
104
102
100
99
97
96
95
94
93
92
91
90
89
87
85
84
83
80
79
78
77
76
75
71
70
69
68
66
65
64
63
60
59
58
57
56
55
54
52
51
50
47
45
44
43
42
40
39
37
35
33
32
31
30
28
27
26
25
24
21
18
17
15
14
13
12
9
8
7
3
2